0 9
9 13
13 1
1 3
3 2
2 4
4 5
5 6
6 7
7 8
8 10
10 11
11 15
15 16
16 17
17 18
18 25
25 24
24 22
22 19
19 14
14 12
12 21
21 23
23 27
27 26
26 30
30 35
35 33
33 32
32 37
37 36
36 34
34 31
31 29
29 28
28 20
20 0
